========================================================== 
File name: C:\DEGR\assets\definitions\MSRCPSP_Gen\1000_20_1024_5_B.def
Creation date: Sat May 06 09:20:50 CEST 2023
Website: http://imopse.ii.pwr.edu.pl/ 
Reference: 
Myszkowski P. B., Skowronski M. E., Olech L., Oslizlo K., 
Hybrid Ant Colony Optimization in solving Multi-Skill Resource-Constrained Project Scheduling Problem, 
Soft Computing, DOI: DOI 10.1007/s00500-014-1455-x 
========================================================== 
General characteristics: 
Tasks: 1000
Resources: 20
Precedence relations: 1023
Number of skill types: 5
========================================================== 
ResourceID 	 Salary 	 Skills 
1	 	 	71.2	 	 Q2: 0 	  Q3: 0 	  Q0: 3 	  Q4: 1 	 
2	 	 	48.2	 	 Q3: 3 	  Q2: 0 	  Q0: 3 	 
3	 	 	99.3	 	 Q2: 0 	  Q4: 0 	  Q1: 2 	 
4	 	 	38.2	 	 Q0: 2 	  Q4: 1 	 
5	 	 	40.4	 	 Q4: 2 	  Q3: 3 	  Q1: 0 	 
6	 	 	61.4	 	 Q1: 2 	  Q3: 1 	  Q0: 2 	 
7	 	 	59.2	 	 Q1: 0 	 
8	 	 	63.1	 	 Q4: 3 	  Q2: 3 	 
9	 	 	79.4	 	 Q1: 1 	 
10	 	 	95.9	 	 Q1: 1 	 
11	 	 	89.3	 	 Q2: 1 	 
12	 	 	13.2	 	 Q3: 3 	  Q1: 2 	  Q4: 0 	 
13	 	 	22.8	 	 Q4: 0 	  Q2: 1 	  Q3: 3 	  Q0: 2 	 
14	 	 	72.5	 	 Q2: 1 	 
15	 	 	21.1	 	 Q1: 1 	  Q4: 3 	  Q0: 1 	  Q2: 0 	 
16	 	 	11.5	 	 Q2: 2 	  Q1: 3 	 
17	 	 	90.4	 	 Q4: 1 	  Q1: 3 	  Q2: 1 	 
18	 	 	45.0	 	 Q0: 0 	 
19	 	 	17.4	 	 Q2: 1 	 
20	 	 	90.2	 	 Q1: 0 	  Q4: 1 	  Q0: 1 	 
========================================================== 
TaskID 	 Duration 	 Skill 	 Predecessor IDs 
1	30	Q1:	1
2	28	Q0:	3
3	30	Q3:	1
4	17	Q1:	3
5	12	Q3:	3
6	39	Q3:	3
7	33	Q4:	2
8	37	Q4:	2
9	34	Q4:	0	7
10	23	Q1:	0
11	37	Q2:	0
12	37	Q2:	3
13	27	Q1:	3
14	24	Q2:	3
15	35	Q3:	0
16	34	Q4:	2
17	17	Q4:	1
18	40	Q0:	1
19	13	Q2:	0
20	35	Q2:	0
21	14	Q1:	2
22	34	Q0:	0
23	38	Q1:	2
24	31	Q3:	3
25	15	Q4:	3
26	20	Q2:	1
27	39	Q1:	1
28	22	Q3:	3
29	14	Q2:	3
30	37	Q4:	0
31	32	Q0:	1
32	14	Q0:	0
33	26	Q0:	1
34	9	Q2:	0
35	15	Q4:	0
36	12	Q0:	0
37	23	Q3:	0
38	34	Q2:	3
39	23	Q2:	1
40	23	Q3:	0
41	11	Q4:	0
42	18	Q2:	2
43	32	Q1:	1
44	23	Q2:	3
45	36	Q2:	0
46	27	Q3:	0
47	13	Q0:	1
48	16	Q3:	1
49	30	Q1:	3
50	16	Q0:	1
51	29	Q0:	3
52	25	Q2:	1	35	6
53	17	Q4:	1
54	15	Q2:	2
55	15	Q2:	2
56	32	Q0:	1
57	31	Q2:	1
58	18	Q4:	1
59	20	Q0:	2
60	28	Q4:	1
61	37	Q0:	2
62	11	Q1:	2
63	23	Q0:	0	29
64	39	Q3:	0
65	19	Q4:	3
66	22	Q3:	3
67	21	Q1:	2
68	20	Q4:	3
69	31	Q4:	1
70	37	Q1:	2
71	28	Q3:	1
72	33	Q3:	3
73	15	Q1:	1
74	13	Q3:	3	5
75	15	Q0:	0
76	28	Q2:	2
77	25	Q4:	2
78	24	Q0:	3
79	37	Q4:	0
80	33	Q1:	3
81	15	Q1:	3
82	16	Q4:	3	38
83	36	Q4:	3
84	30	Q0:	3
85	18	Q1:	3
86	13	Q3:	0	83
87	27	Q1:	1
88	15	Q0:	0
89	39	Q3:	3
90	25	Q1:	1
91	28	Q2:	3
92	11	Q0:	1
93	39	Q1:	3	47
94	34	Q3:	3
95	26	Q0:	0
96	32	Q0:	1
97	11	Q2:	0
98	15	Q1:	1
99	34	Q2:	2
100	27	Q3:	3
101	33	Q1:	2
102	31	Q0:	2
103	25	Q1:	0
104	14	Q2:	3
105	40	Q1:	2
106	9	Q4:	0
107	33	Q1:	1	68
108	14	Q3:	1
109	14	Q4:	1
110	24	Q1:	0
111	39	Q4:	2	13
112	37	Q2:	3
113	16	Q0:	0
114	19	Q1:	0
115	39	Q2:	1
116	21	Q1:	3
117	15	Q4:	3
118	11	Q3:	3
119	19	Q4:	3
120	35	Q2:	0
121	24	Q0:	2
122	32	Q3:	0
123	9	Q1:	3
124	15	Q0:	3
125	36	Q0:	1
126	29	Q0:	3	38
127	29	Q0:	2
128	27	Q0:	0
129	24	Q0:	2
130	30	Q0:	0
131	14	Q0:	2
132	14	Q4:	2
133	23	Q3:	0
134	18	Q0:	2	59
135	23	Q4:	3
136	22	Q1:	3
137	34	Q1:	2
138	25	Q0:	3
139	26	Q4:	0
140	32	Q0:	3
141	26	Q4:	3
142	32	Q0:	2
143	19	Q4:	1
144	19	Q1:	0
145	18	Q2:	3
146	36	Q3:	0	2
147	18	Q4:	2	43
148	36	Q4:	3
149	36	Q4:	3	54
150	31	Q4:	2	30	12
151	37	Q0:	2	110
152	39	Q1:	3
153	17	Q4:	3
154	32	Q4:	1
155	21	Q2:	2
156	11	Q0:	0	8
157	30	Q0:	2	53
158	38	Q0:	3	109
159	34	Q0:	3
160	32	Q4:	1
161	35	Q4:	2
162	29	Q3:	1	144
163	27	Q0:	1
164	16	Q1:	3
165	19	Q2:	0
166	15	Q1:	1
167	16	Q3:	0	63	22
168	38	Q3:	0
169	24	Q0:	3
170	13	Q1:	1	53
171	12	Q0:	0
172	9	Q2:	3	28
173	28	Q1:	1
174	27	Q2:	3
175	32	Q1:	3
176	29	Q0:	2	79
177	9	Q0:	2
178	11	Q3:	1	114
179	31	Q0:	0	15
180	14	Q0:	1
181	34	Q3:	1
182	31	Q4:	1
183	29	Q2:	0	129
184	10	Q2:	2	105
185	33	Q1:	2
186	34	Q4:	0	13
187	18	Q4:	0
188	9	Q1:	3
189	14	Q4:	2
190	39	Q4:	2	165
191	12	Q3:	3
192	26	Q2:	3	70
193	15	Q0:	3
194	37	Q0:	3
195	28	Q4:	1
196	33	Q1:	3	100
197	36	Q2:	2	57	10	31
198	8	Q2:	2	13
199	40	Q2:	3
200	10	Q3:	3
201	27	Q0:	2
202	15	Q3:	0
203	10	Q4:	3
204	30	Q2:	2
205	28	Q3:	3
206	32	Q4:	2
207	24	Q4:	2
208	14	Q4:	2	19
209	22	Q1:	0
210	24	Q3:	3
211	32	Q3:	3	131
212	34	Q3:	1	194
213	33	Q1:	1
214	31	Q2:	3	11
215	34	Q2:	0
216	12	Q0:	2
217	21	Q3:	0	151
218	28	Q1:	1
219	20	Q3:	1
220	22	Q3:	0
221	16	Q3:	0	97
222	30	Q4:	1	52
223	37	Q3:	0	188	164
224	24	Q4:	2
225	32	Q0:	3
226	15	Q1:	0	23
227	40	Q3:	3	217
228	9	Q3:	1	200
229	35	Q4:	1
230	31	Q0:	2
231	19	Q0:	2	208
232	33	Q3:	0
233	31	Q0:	2
234	24	Q3:	3	69
235	19	Q0:	2
236	10	Q0:	3
237	30	Q3:	1	221	204
238	17	Q2:	2
239	29	Q2:	0	125
240	22	Q3:	0	113	89
241	21	Q4:	3
242	14	Q1:	2
243	20	Q4:	0	45	124
244	36	Q4:	1	199	191
245	9	Q2:	2	36
246	30	Q2:	3
247	28	Q1:	2
248	21	Q3:	1
249	40	Q0:	3
250	13	Q2:	3
251	15	Q4:	3	235
252	33	Q3:	1
253	23	Q4:	1
254	22	Q2:	0
255	33	Q4:	0	7	118	121
256	26	Q0:	2
257	17	Q3:	0
258	15	Q0:	2
259	14	Q2:	3
260	40	Q0:	3	71
261	9	Q0:	3	156
262	11	Q1:	0
263	26	Q0:	3
264	32	Q2:	2	88
265	17	Q2:	3
266	26	Q0:	3	104
267	20	Q1:	3	70
268	26	Q2:	0	52
269	24	Q1:	2	122
270	19	Q3:	0
271	18	Q0:	0	77
272	17	Q4:	0	230
273	26	Q4:	1
274	28	Q3:	0	126
275	37	Q2:	2	133
276	11	Q1:	3
277	19	Q1:	3
278	17	Q2:	3	97	218	197
279	34	Q0:	1	145
280	26	Q3:	3
281	25	Q2:	2
282	13	Q1:	2	263
283	16	Q4:	0
284	39	Q2:	3
285	35	Q2:	3	46
286	10	Q0:	1
287	14	Q3:	1
288	33	Q1:	3
289	18	Q3:	1	86
290	9	Q4:	3
291	28	Q2:	0
292	25	Q1:	0	54
293	10	Q0:	2	202
294	13	Q4:	3	50
295	13	Q1:	3
296	13	Q4:	1	13	233
297	23	Q1:	1	183
298	12	Q0:	0	92
299	37	Q4:	3	143
300	9	Q0:	1
301	17	Q0:	1	131
302	25	Q0:	2	29
303	15	Q1:	3
304	36	Q1:	0	114	13
305	9	Q2:	1	10
306	32	Q0:	1
307	12	Q0:	3
308	27	Q4:	3	188	91	238	155	54
309	34	Q1:	0	272
310	30	Q4:	0	4
311	14	Q2:	0
312	35	Q0:	3	53
313	20	Q4:	1
314	24	Q1:	0
315	35	Q1:	1
316	36	Q3:	0
317	11	Q0:	2	296	115
318	15	Q3:	3
319	15	Q2:	0	137
320	14	Q2:	3	113
321	9	Q0:	1	91
322	26	Q1:	2	314	126
323	33	Q2:	2
324	15	Q3:	0	99	74
325	31	Q1:	0
326	16	Q3:	1
327	32	Q2:	2
328	22	Q2:	1	327	169	116
329	20	Q0:	3	13
330	31	Q1:	0
331	20	Q0:	3
332	18	Q1:	2	197
333	39	Q2:	2
334	15	Q0:	3
335	30	Q2:	0	64
336	25	Q3:	1
337	37	Q3:	1
338	40	Q0:	0
339	29	Q0:	3	98	104
340	19	Q1:	0
341	19	Q2:	2
342	29	Q0:	2	176
343	28	Q4:	1
344	30	Q4:	3
345	25	Q4:	0
346	12	Q2:	1	109
347	39	Q0:	0
348	12	Q4:	2	76
349	35	Q3:	0
350	38	Q4:	0
351	22	Q0:	1
352	30	Q2:	1	155
353	33	Q4:	3	7
354	32	Q0:	3	48
355	33	Q0:	1
356	37	Q0:	1	354
357	13	Q4:	3	22
358	11	Q4:	3
359	40	Q3:	3	283
360	31	Q4:	3	343	266
361	24	Q2:	0	215
362	30	Q1:	3	105	75
363	27	Q4:	2	188
364	18	Q3:	3	308	328
365	34	Q2:	0
366	18	Q1:	3	189
367	30	Q0:	1
368	9	Q4:	2	97
369	30	Q0:	2	92
370	37	Q1:	2
371	27	Q2:	0	203
372	22	Q3:	1
373	10	Q1:	3	163
374	31	Q2:	1	38	353	170
375	14	Q0:	0
376	22	Q0:	1
377	11	Q0:	2	47
378	40	Q1:	0	84
379	32	Q4:	1	279	271	261
380	15	Q0:	0
381	16	Q1:	2
382	24	Q1:	0	70
383	17	Q4:	3	259
384	30	Q2:	1	250
385	28	Q0:	1
386	14	Q3:	1
387	16	Q0:	3	101
388	15	Q4:	3	334
389	28	Q1:	3
390	14	Q1:	3	374	64
391	40	Q0:	1	163
392	34	Q4:	1	270	201
393	19	Q4:	0
394	15	Q0:	1	308	265
395	25	Q2:	2
396	15	Q3:	3	22	31
397	36	Q0:	1	384
398	14	Q4:	0	361
399	15	Q2:	1
400	37	Q3:	3	366
401	39	Q0:	1	128	106
402	35	Q4:	3
403	23	Q2:	1	46	138
404	9	Q1:	3	207
405	12	Q0:	3
406	32	Q4:	1
407	28	Q4:	3
408	19	Q1:	2
409	16	Q4:	0	70
410	22	Q4:	0
411	23	Q1:	0
412	33	Q3:	1
413	38	Q3:	1	75
414	22	Q4:	2	85
415	24	Q1:	1
416	21	Q0:	2	45
417	17	Q3:	3
418	39	Q1:	0
419	13	Q2:	3	223	239
420	25	Q1:	1
421	24	Q0:	0	415	50
422	20	Q4:	0	239	373
423	35	Q4:	1	404
424	17	Q1:	2	154
425	22	Q0:	1	29	45
426	36	Q1:	2	182	285	375
427	19	Q4:	1	386
428	33	Q0:	1
429	18	Q1:	0
430	36	Q1:	2	134
431	38	Q0:	1	76
432	18	Q0:	2
433	26	Q4:	2
434	39	Q4:	1	382
435	19	Q1:	3	25
436	15	Q1:	0
437	35	Q1:	0
438	27	Q1:	1
439	40	Q1:	3
440	39	Q0:	1	76
441	16	Q1:	2
442	27	Q1:	3	110
443	32	Q2:	2	279	52
444	13	Q2:	2	70	250	272
445	39	Q4:	0	131
446	35	Q0:	0
447	32	Q1:	0
448	37	Q0:	2	235
449	12	Q4:	3	37
450	34	Q3:	1
451	14	Q2:	3	61
452	40	Q2:	3
453	16	Q1:	3	308
454	36	Q4:	1
455	16	Q0:	0	262
456	40	Q0:	1
457	26	Q4:	0
458	13	Q2:	2
459	32	Q3:	1	417
460	10	Q3:	0	133	276
461	16	Q2:	3	223
462	26	Q1:	1	34	163	282	418
463	36	Q4:	0	249	256
464	39	Q0:	1	111	360
465	28	Q1:	1	94
466	21	Q4:	1	425
467	14	Q2:	0
468	19	Q1:	3	50	329
469	33	Q2:	0	100
470	16	Q1:	0
471	26	Q1:	1	95
472	25	Q0:	0	332
473	28	Q4:	3
474	20	Q3:	0
475	11	Q1:	0	174
476	14	Q4:	0	205	56
477	18	Q4:	0	280
478	12	Q0:	0
479	36	Q4:	2
480	10	Q1:	2	63
481	32	Q2:	3	344	400	363	207
482	22	Q2:	3	183
483	18	Q0:	3	199
484	40	Q4:	0
485	39	Q1:	3
486	17	Q2:	1
487	36	Q1:	0	317
488	26	Q1:	0	404	63	3
489	10	Q4:	3	90
490	25	Q4:	2	247
491	28	Q3:	0	105	480	462
492	23	Q0:	1
493	26	Q2:	3
494	13	Q0:	3
495	34	Q0:	0	384	228	16
496	17	Q1:	3	312
497	16	Q1:	1	4
498	34	Q0:	0	173
499	26	Q0:	1	146
500	22	Q2:	2	108	297
501	24	Q4:	3
502	11	Q0:	3
503	12	Q4:	3	37	356
504	37	Q1:	1
505	40	Q1:	0	237	152
506	20	Q1:	2
507	21	Q3:	0	271	257
508	16	Q3:	0
509	18	Q1:	3	11	70
510	27	Q4:	1
511	34	Q4:	2	113	59
512	40	Q0:	3	320
513	23	Q0:	3	12
514	13	Q0:	3	320	379
515	20	Q0:	2	179	113
516	31	Q0:	3	187	479
517	11	Q0:	3	402
518	40	Q3:	1	95
519	21	Q4:	0	498
520	24	Q0:	1	473
521	28	Q1:	0	247
522	25	Q0:	3	367
523	33	Q3:	0	128
524	32	Q0:	3	54	225
525	19	Q2:	3
526	21	Q1:	0	46	165
527	20	Q1:	0	455	516
528	38	Q0:	3	2
529	15	Q3:	3
530	11	Q1:	2
531	22	Q0:	1	416
532	9	Q4:	0
533	12	Q4:	3	457
534	15	Q0:	2	274	187
535	14	Q1:	3	366	53
536	21	Q1:	1	135
537	29	Q3:	3	254	344
538	12	Q4:	1	178
539	15	Q4:	3	467	423
540	29	Q2:	1	177	458
541	29	Q4:	2	347
542	29	Q0:	2	40
543	19	Q1:	2	83	379
544	27	Q0:	2	529
545	15	Q2:	1	300	452	141
546	29	Q2:	1	388
547	18	Q2:	2
548	38	Q2:	2
549	10	Q4:	3	493
550	37	Q2:	0	313
551	15	Q4:	3	204	515	156
552	11	Q4:	1	77
553	15	Q4:	1	190
554	15	Q1:	3
555	13	Q0:	2
556	26	Q2:	3	240	531	307
557	11	Q1:	0	196
558	9	Q2:	0	514	452
559	35	Q1:	3	400
560	26	Q1:	0	545
561	37	Q4:	0
562	17	Q1:	1	419	153	306	248
563	24	Q4:	2	131	23
564	10	Q4:	0
565	27	Q4:	0
566	23	Q1:	3	318
567	35	Q2:	3
568	16	Q3:	3	331	429
569	32	Q1:	3
570	34	Q1:	2
571	29	Q4:	1
572	13	Q3:	3	307	190
573	20	Q2:	2
574	12	Q4:	3	173	290
575	31	Q1:	0	14
576	20	Q1:	2	421	574	470	557
577	31	Q4:	1	217
578	13	Q4:	1	260
579	19	Q0:	0	440	106
580	20	Q4:	1	50
581	32	Q3:	1
582	15	Q4:	2	439	234
583	10	Q1:	2	108	479
584	9	Q0:	0	567
585	16	Q2:	3	206
586	32	Q4:	2	152
587	39	Q0:	1	7
588	14	Q0:	1	50
589	33	Q4:	0	186
590	10	Q4:	1	13	472
591	37	Q1:	1	443	363
592	26	Q2:	3
593	30	Q2:	3	131
594	38	Q4:	3	144	559
595	20	Q4:	1
596	14	Q2:	0
597	33	Q0:	3
598	15	Q0:	2
599	29	Q3:	3	479	174
600	38	Q0:	1	287
601	25	Q1:	1	589	291
602	38	Q1:	0	360
603	40	Q2:	1
604	28	Q0:	2
605	16	Q0:	1	547	221	263
606	34	Q3:	3	301
607	27	Q2:	2
608	27	Q0:	1	211	131
609	33	Q1:	2	438
610	35	Q2:	1	387	328	609	57
611	22	Q2:	3
612	33	Q1:	3	499	455	437
613	33	Q3:	0
614	26	Q0:	2	605
615	17	Q0:	1	286	115
616	38	Q3:	1
617	40	Q1:	3	341	100
618	22	Q2:	3	616
619	23	Q0:	3	375	450	244
620	17	Q2:	1	163	362	542
621	20	Q1:	1
622	32	Q0:	1	596	565	397	15
623	35	Q2:	1
624	25	Q1:	3	194
625	17	Q0:	1
626	22	Q2:	1	500
627	18	Q2:	3	469	327	258	372
628	19	Q1:	1	156
629	13	Q0:	2	422	600
630	31	Q2:	3
631	32	Q3:	0	621	307	80
632	16	Q1:	1
633	10	Q3:	3	612
634	18	Q0:	0
635	20	Q1:	1	516	311	21
636	21	Q2:	1	263
637	22	Q2:	2	541	510
638	16	Q4:	0	307	30
639	20	Q0:	2
640	25	Q0:	2	361
641	9	Q1:	1
642	20	Q3:	3
643	12	Q3:	1
644	34	Q3:	3	417
645	10	Q2:	1
646	23	Q1:	3
647	40	Q1:	2
648	19	Q2:	3
649	20	Q4:	2	484
650	34	Q2:	3	385
651	30	Q0:	3	586
652	15	Q1:	1	27	575
653	27	Q0:	2	487	575	123	534	393
654	18	Q2:	1	298	91
655	33	Q2:	2	250	557	474
656	30	Q2:	3	75
657	29	Q2:	0	209	563
658	37	Q1:	3	548
659	12	Q3:	1	293
660	16	Q4:	2
661	21	Q1:	2	49
662	31	Q1:	1	609	311
663	19	Q1:	2	270
664	39	Q4:	0	212
665	34	Q4:	2	127
666	24	Q0:	3
667	31	Q1:	0	283
668	17	Q1:	0
669	14	Q0:	0
670	39	Q3:	0	652	334
671	29	Q3:	3	590
672	13	Q3:	3	637	146	391
673	31	Q1:	0	55
674	30	Q3:	0	330
675	25	Q0:	3
676	30	Q4:	0	597	431
677	37	Q2:	2	360	207	183
678	40	Q1:	2
679	28	Q4:	3	166	94
680	33	Q3:	0	291
681	34	Q3:	3
682	9	Q4:	1
683	25	Q0:	0
684	25	Q1:	1	298	611
685	35	Q4:	0
686	16	Q3:	1	214	182
687	22	Q3:	0	562	208
688	21	Q0:	3	425	524	228
689	36	Q2:	1	236
690	40	Q0:	3	147
691	20	Q3:	1
692	30	Q0:	2	467	642	68
693	30	Q2:	0	418
694	39	Q2:	0	631	74	61
695	19	Q4:	2	63
696	21	Q2:	2	607	502	40	555	24	58
697	37	Q4:	0	482
698	18	Q4:	2	541	183	389
699	39	Q2:	2	145	44	559
700	19	Q1:	1
701	10	Q4:	1	16
702	27	Q3:	3	200	699
703	38	Q0:	1	442	176	522
704	35	Q3:	1	78	687
705	35	Q4:	1	106	485
706	17	Q2:	2	555
707	29	Q1:	0	420	145
708	24	Q2:	0	656
709	10	Q1:	0
710	23	Q4:	0	296	631	231
711	34	Q0:	1	3	418
712	13	Q3:	3	126	256
713	22	Q4:	3
714	29	Q0:	0	133
715	10	Q2:	3	266
716	22	Q3:	1	625	438	377
717	22	Q2:	1	482	539	149
718	33	Q2:	3
719	35	Q1:	3	29	89
720	21	Q0:	3	366	180
721	24	Q0:	2
722	17	Q1:	2
723	27	Q4:	0	556	667
724	28	Q3:	3	516	305
725	31	Q0:	0	558	259
726	24	Q3:	0	691
727	18	Q4:	1	77
728	34	Q0:	2	104	184
729	20	Q4:	1	122
730	23	Q4:	0
731	26	Q4:	3
732	26	Q2:	0	252	703
733	16	Q4:	3
734	25	Q1:	1	92
735	29	Q3:	1	175
736	29	Q1:	3	299	402	576	226
737	27	Q3:	0
738	21	Q2:	0	383
739	34	Q1:	1
740	20	Q3:	3	231	671	45	399
741	12	Q3:	3	197	7
742	36	Q2:	2
743	18	Q3:	0	13	236
744	24	Q3:	1	347
745	25	Q2:	2	98
746	23	Q0:	2	78
747	15	Q2:	0
748	38	Q4:	3	603
749	10	Q4:	3
750	24	Q1:	0	387
751	29	Q0:	2	732	342	231
752	35	Q0:	2	79	568	50
753	38	Q1:	3	258
754	28	Q0:	2	447	344
755	10	Q0:	0	593	652	327
756	27	Q0:	0	433
757	20	Q2:	1	143
758	32	Q4:	2	706
759	28	Q4:	3
760	15	Q0:	0	250
761	31	Q3:	3	7	54	652
762	34	Q4:	3	594	143	126
763	10	Q3:	1
764	38	Q3:	0	133	445	438
765	14	Q0:	1	304
766	34	Q4:	0	157
767	21	Q0:	3	212	5	228
768	23	Q4:	0	276
769	37	Q2:	1	687	385	721
770	30	Q3:	1	295	684
771	25	Q0:	2	639
772	18	Q0:	1	214
773	15	Q1:	3	459
774	38	Q0:	0
775	24	Q4:	3	229
776	33	Q2:	3	197	209	175	390	30
777	17	Q4:	2
778	29	Q1:	1	286
779	23	Q2:	1
780	38	Q3:	1	278	424
781	24	Q1:	2	216
782	18	Q0:	0	705	744	244
783	17	Q4:	1	624
784	33	Q1:	3	167
785	21	Q1:	2
786	38	Q2:	3
787	32	Q1:	1	137
788	30	Q4:	3	773
789	24	Q2:	2	754	187
790	9	Q0:	2	519	690	403
791	38	Q1:	3	737
792	20	Q1:	2
793	30	Q0:	3
794	25	Q0:	2
795	14	Q2:	2	518	293	568	780
796	35	Q1:	3	492
797	16	Q2:	0
798	12	Q3:	0	529	727
799	21	Q4:	0	89
800	31	Q2:	1	300	272
801	21	Q1:	3
802	12	Q4:	2
803	21	Q0:	2	691
804	36	Q1:	0	632	423
805	37	Q1:	0	144
806	10	Q3:	3	393
807	31	Q0:	2
808	14	Q0:	3	802	560
809	25	Q3:	3
810	17	Q3:	0	688
811	10	Q0:	1
812	29	Q1:	1	350	245	354	765	46	620
813	30	Q1:	3	461	548
814	33	Q4:	2
815	29	Q1:	0
816	38	Q3:	1
817	30	Q1:	1	415	157	760
818	15	Q2:	1	372
819	18	Q2:	2	8	38	301
820	18	Q2:	3	405	456
821	39	Q3:	0	311	389	348
822	20	Q2:	1	284	264	53
823	32	Q3:	1	572	444
824	10	Q4:	1	549
825	22	Q2:	0
826	29	Q1:	1	260	789
827	38	Q1:	2	735	144
828	25	Q1:	1	803	649	489	417
829	12	Q3:	0	507	121	511
830	12	Q3:	1	808	272	262
831	15	Q0:	3	504
832	13	Q3:	3	608	94	105
833	21	Q2:	0	34
834	40	Q2:	0	36	449
835	25	Q2:	2
836	23	Q4:	2	494
837	20	Q1:	1	43	135
838	38	Q1:	1	604	207
839	13	Q2:	3	705
840	16	Q0:	3	838	429
841	17	Q0:	3
842	34	Q3:	0	263	725	581
843	14	Q1:	1	336	47	768
844	18	Q3:	3	611	25	371
845	33	Q3:	1	431	200	606	751
846	19	Q3:	1	808
847	10	Q2:	1	553
848	27	Q1:	3	345
849	27	Q3:	0	395	258	53	31
850	30	Q2:	2	500	676
851	27	Q2:	1
852	27	Q4:	0	244	550	267
853	35	Q3:	1	136	346
854	27	Q3:	0	394	776
855	24	Q0:	1	477	827
856	31	Q2:	3	546
857	31	Q4:	3	736	461	76
858	39	Q4:	0	694	686	81
859	15	Q0:	3	830	799	733
860	39	Q1:	3	453
861	37	Q4:	0	372
862	40	Q2:	3	545	636	237	10
863	35	Q4:	2
864	38	Q4:	2	848
865	25	Q0:	3	584	835	469
866	20	Q3:	1	385
867	36	Q3:	1	230	695	689
868	26	Q4:	2	506
869	35	Q4:	0	749	668	39
870	38	Q0:	2	260
871	38	Q4:	3	241	497
872	37	Q4:	3
873	34	Q2:	1	132	448
874	16	Q1:	0	848
875	32	Q2:	2	620
876	10	Q1:	3
877	32	Q0:	1	717	406	779
878	14	Q3:	1	46	65	797
879	13	Q1:	3	847	524	421	102
880	39	Q2:	1	539	145
881	18	Q1:	2
882	20	Q3:	1	235	208
883	13	Q0:	2	69
884	33	Q4:	0	800
885	10	Q0:	1	436
886	19	Q1:	1	562	289
887	26	Q4:	0
888	10	Q4:	0	628	73	246
889	28	Q1:	1	108	568	448
890	36	Q1:	1	96
891	17	Q0:	0	127	686	326
892	36	Q4:	2	121	233	737
893	34	Q2:	1	519
894	22	Q3:	0	288
895	35	Q2:	2	817	197	83	666	233
896	10	Q1:	2	393	165	192
897	9	Q0:	1	676	620
898	28	Q0:	3	514	155
899	14	Q0:	2	646
900	20	Q1:	2	167	102	55
901	10	Q1:	3	834
902	17	Q0:	2	238	81	314	449	419
903	20	Q2:	2	628
904	39	Q1:	1	199	164	178
905	25	Q1:	3	169	754
906	12	Q4:	0
907	8	Q4:	1
908	17	Q0:	1	174
909	9	Q0:	1	60	76
910	11	Q0:	1	199	397	818	676	886	72
911	25	Q4:	3	741	262	855	767	141	378	200
912	21	Q3:	0	24	106	138	841
913	16	Q0:	3	147	113	541	292
914	32	Q2:	2
915	20	Q0:	0	210
916	11	Q2:	1	592
917	13	Q0:	2
918	36	Q2:	1
919	33	Q0:	0	422	593
920	13	Q1:	2	135	826	661
921	14	Q0:	0	351	251
922	36	Q3:	3	666
923	39	Q2:	0
924	40	Q2:	0	829
925	10	Q2:	1	724
926	22	Q3:	0	506
927	34	Q4:	0	511	585	555	1
928	33	Q4:	2	540	704	105
929	39	Q3:	1	601
930	18	Q3:	0	839	101	781	747
931	36	Q0:	0	250	606	354
932	33	Q4:	1	852	371	488
933	25	Q3:	0	579
934	34	Q0:	1	408	833
935	25	Q0:	1	686
936	27	Q4:	0
937	40	Q4:	0
938	38	Q1:	3
939	33	Q0:	1	880
940	35	Q2:	3	83
941	26	Q4:	1
942	33	Q1:	1	863
943	12	Q1:	3	446	927
944	19	Q0:	0	821	656
945	10	Q4:	2	778
946	31	Q4:	3	376	371	590
947	20	Q2:	1	676	184
948	26	Q1:	0	648
949	14	Q3:	3	247	889	581
950	26	Q4:	3	200
951	12	Q1:	0	350	460	590
952	34	Q0:	0	613	731
953	28	Q2:	1	231	690	367	430	725
954	39	Q3:	3	864	938
955	29	Q4:	3	177	405	425	175
956	32	Q3:	3	28	719
957	34	Q3:	1	744	651	632	837
958	35	Q1:	2	797
959	17	Q1:	1	564
960	30	Q2:	2	501	7
961	12	Q2:	0	596	790
962	17	Q0:	3
963	21	Q3:	0	757	240
964	21	Q2:	3	856	645
965	20	Q2:	1	785	604	805	652
966	35	Q2:	3	706	128
967	40	Q0:	1	267	16	797
968	25	Q1:	1	531	292	934	868
969	36	Q2:	3	436	332	182	414
970	39	Q1:	1	810	98	743
971	32	Q0:	2	684	172	138
972	35	Q2:	0	787
973	39	Q4:	3	551
974	12	Q4:	2	383	252
975	13	Q4:	0	452	249	680
976	13	Q4:	2	281	606
977	33	Q3:	3	835
978	37	Q0:	0	132	117	855
979	25	Q1:	2	239	275	702
980	21	Q4:	1	152	493
981	15	Q0:	0	441
982	13	Q0:	3	562
983	29	Q1:	2	332
984	37	Q2:	3	522	874
985	25	Q1:	2	271	403
986	25	Q1:	3	196	389	560	808
987	38	Q2:	1	608	382
988	39	Q3:	3	194
989	32	Q4:	0	608	127	239
990	37	Q1:	3	30
991	25	Q4:	1	872	514	130	936	507	141
992	23	Q3:	3	725	363	692
993	22	Q3:	0	978	966	223
994	9	Q4:	0	466	319
995	32	Q4:	2	960	519
996	36	Q3:	1	861	794	35
997	36	Q0:	2	857	812
998	15	Q0:	0	941	602
999	40	Q1:	1	17
1000	36	Q0:	3
========================================================== 